Au  C  H  N 
 1.0000000000000000
    27.0949408415810495    0.0000000000000000    0.0000000000000000
     0.0000000000000000   26.9162047570957021    0.0000000000000000
     0.0000000000000000    0.0000000000000000   28.2989738114721376
 147  42 210  42
Cartesian
 12.3623716892923579 12.4802970301964606 12.3623716892923579
  7.4541238964307848 13.9970290107940123  6.8747838316664645
  9.9082477928615713 12.4802970301964606  5.9373919158332331
  9.9082477928615713 15.5137609913915639  5.9373919158332331
 17.8499595469182495 17.3885448230580337 10.8456397086948026
 18.7873514627514879 14.9344209266272472  9.3289077280972510
 17.8499595469182495 17.3885448230580337 13.8791036698899095
  9.9082477928615713  9.4468330690013538  5.9373919158332331
 18.7873514627514879 14.9344209266272472 12.3623716892923579
  6.8747838316664645 17.3885448230580337 10.8456397086948026
  5.9373919158332331 14.9344209266272472  9.3289077280972510
  6.8747838316664645 17.3885448230580337 13.8791036698899095
  5.9373919158332331 14.9344209266272472 12.3623716892923579
  5.9373919158332331 14.9344209266272472 15.3958356504874612
 17.8499595469182495  7.5720492373348876 10.8456397086948026
 18.7873514627514879 14.9344209266272472 15.3958356504874612
  7.4541238964307848 10.9635650495989054  6.8747838316664645
  9.9082477928615713 15.5137609913915639 18.7873514627514879
  9.9082477928615713 12.4802970301964606 18.7873514627514879
 12.3623716892923579 10.9635650495989054  4.9999999999999982
 12.3623716892923579 13.9970290107940123  4.9999999999999982
 12.3623716892923579 17.0304929719891192  4.9999999999999982
 17.2706194821539327 10.9635650495989054 17.8499595469182495
 14.8164955857231444  9.4468330690013538 18.7873514627514879
 17.2706194821539327 13.9970290107940123 17.8499595469182495
 14.8164955857231444 12.4802970301964606 18.7873514627514879
 14.8164955857231444 15.5137609913915639 18.7873514627514879
 17.2706194821539327 10.9635650495989054  6.8747838316664645
 14.8164955857231444  9.4468330690013538  5.9373919158332331
 17.2706194821539327 13.9970290107940123  6.8747838316664645
 14.8164955857231444 12.4802970301964606  5.9373919158332331
 14.8164955857231444 15.5137609913915639  5.9373919158332331
  7.4541238964307848 10.9635650495989054 17.8499595469182495
  9.9082477928615713  9.4468330690013538 18.7873514627514879
 18.7873514627514879 10.0261731337656741  9.3289077280972510
 12.3623716892923579  7.9301010884038021  4.9999999999999982
 17.8499595469182495  7.5720492373348876 13.8791036698899095
 18.7873514627514879 10.0261731337656741 15.3958356504874612
 15.3958356504874612 18.9052768036555889  9.9082477928615713
 10.8456397086948026  6.9927091725705672  7.4541238964307848
  9.3289077280972510  6.0553172567373359  9.9082477928615713
 13.8791036698899095  6.9927091725705672  7.4541238964307848
 12.3623716892923579  6.0553172567373359  9.9082477928615713
 15.3958356504874612  6.0553172567373359  9.9082477928615713
 12.3623716892923579 18.9052768036555889  9.9082477928615713
 16.3332275663206943  8.5094411531681224 16.3332275663206943
 16.3332275663206943  8.5094411531681224  8.3915158122640197
 16.3332275663206943 16.4511529072247988  8.3915158122640197
  8.3915158122640197  8.5094411531681224 16.3332275663206943
  8.3915158122640197 16.4511529072247988 16.3332275663206943
  8.3915158122640197  8.5094411531681224  8.3915158122640197
  8.3915158122640197 16.4511529072247988  8.3915158122640197
 16.3332275663206943 16.4511529072247988 16.3332275663206943
 13.8791036698899095 17.9678848878223505  7.4541238964307848
  9.3289077280972510 18.9052768036555889  9.9082477928615713
 10.8456397086948026 17.9678848878223505  7.4541238964307848
  6.8747838316664645  7.5720492373348876 10.8456397086948026
  5.9373919158332331 10.0261731337656741  9.3289077280972510
  6.8747838316664645  7.5720492373348876 13.8791036698899095
  5.9373919158332331 10.0261731337656741 12.3623716892923579
  5.9373919158332331 10.0261731337656741 15.3958356504874612
 10.8456397086948026 17.9678848878223505 17.2706194821539327
  9.3289077280972510 18.9052768036555889 14.8164955857231444
 13.8791036698899095 17.9678848878223505 17.2706194821539327
 12.3623716892923579 18.9052768036555889 14.8164955857231444
 15.3958356504874612 18.9052768036555889 14.8164955857231444
 10.8456397086948026  6.9927091725705672 17.2706194821539327
  9.3289077280972510  6.0553172567373359 14.8164955857231444
 13.8791036698899095  6.9927091725705672 17.2706194821539327
 12.3623716892923579  6.0553172567373359 14.8164955857231444
 15.3958356504874612  6.0553172567373359 14.8164955857231444
 18.7873514627514879 10.0261731337656741 12.3623716892923579
 12.3623716892923579 17.0304929719891192 19.7247433785847193
  7.4541238964307848 13.9970290107940123 17.8499595469182495
 12.3623716892923579 10.9635650495989054 19.7247433785847193
 12.3623716892923579 17.3885448230580337 12.3623716892923579
 15.3958356504874612 17.3885448230580337 12.3623716892923579
  9.3289077280972510  7.5720492373348876 12.3623716892923579
 12.3623716892923579  7.5720492373348876 12.3623716892923579
 15.3958356504874612  7.5720492373348876 12.3623716892923579
 12.3623716892923579  9.4468330690013538 17.2706194821539327
 12.3623716892923579 12.4802970301964606 17.2706194821539327
 12.3623716892923579 15.5137609913915639 17.2706194821539327
 12.3623716892923579  9.4468330690013538  7.4541238964307848
 12.3623716892923579 12.4802970301964606  7.4541238964307848
 12.3623716892923579 15.5137609913915639  7.4541238964307848
 14.8164955857231444 10.9635650495989054 16.3332275663206943
 14.8164955857231444 13.9970290107940123 16.3332275663206943
 14.8164955857231444 10.9635650495989054  8.3915158122640197
 14.8164955857231444 13.9970290107940123  8.3915158122640197
 12.3623716892923579 13.9970290107940123 19.7247433785847193
  9.9082477928615713 10.9635650495989054 16.3332275663206943
  7.4541238964307848 12.4802970301964606 15.3958356504874612
  7.4541238964307848 12.4802970301964606  9.3289077280972510
 14.8164955857231444 12.4802970301964606 10.8456397086948026
 14.8164955857231444 12.4802970301964606 13.8791036698899095
  9.9082477928615713 12.4802970301964606 10.8456397086948026
  9.9082477928615713 12.4802970301964606 13.8791036698899095
 10.8456397086948026 14.9344209266272472 12.3623716892923579
 13.8791036698899095 14.9344209266272472 12.3623716892923579
 10.8456397086948026 10.0261731337656741 12.3623716892923579
 13.8791036698899095 10.0261731337656741 12.3623716892923579
 12.3623716892923579 10.9635650495989054 14.8164955857231444
 12.3623716892923579 13.9970290107940123 14.8164955857231444
 12.3623716892923579 10.9635650495989054  9.9082477928615713
 12.3623716892923579 13.9970290107940123  9.9082477928615713
 17.2706194821539327 12.4802970301964606  9.3289077280972510
 17.2706194821539327 12.4802970301964606 12.3623716892923579
 17.2706194821539327 12.4802970301964606 15.3958356504874612
  7.4541238964307848 12.4802970301964606 12.3623716892923579
  9.9082477928615713 13.9970290107940123 16.3332275663206943
  9.3289077280972510 17.3885448230580337 12.3623716892923579
  9.9082477928615713 13.9970290107940123  8.3915158122640197
 19.7247433785847193 12.4802970301964606 16.9125676310850181
  4.9999999999999982 12.4802970301964606  7.8121757474996993
  4.9999999999999982 12.4802970301964606 10.8456397086948026
  4.9999999999999982 12.4802970301964606 13.8791036698899095
  7.8121757474996993 19.8426687194888203 12.3623716892923579
 10.8456397086948026 19.8426687194888203 12.3623716892923579
 19.7247433785847193 12.4802970301964606 13.8791036698899095
 13.8791036698899095 19.8426687194888203 12.3623716892923579
  7.8121757474996993  5.1179253409041010 12.3623716892923579
 10.8456397086948026  5.1179253409041010 12.3623716892923579
 13.8791036698899095  5.1179253409041010 12.3623716892923579
 16.9125676310850181  5.1179253409041010 12.3623716892923579
 12.3623716892923579  7.9301010884038021 19.7247433785847193
  9.9082477928615713 10.9635650495989054  8.3915158122640197
 16.9125676310850181 19.8426687194888203 12.3623716892923579
 19.7247433785847193 12.4802970301964606 10.8456397086948026
  4.9999999999999982 12.4802970301964606 16.9125676310850181
 16.3332275663206943 14.9344209266272472 13.8791036698899095
 16.3332275663206943 14.9344209266272472 10.8456397086948026
 19.7247433785847193 12.4802970301964606  7.8121757474996993
  8.3915158122640197 14.9344209266272472 10.8456397086948026
  8.3915158122640197 14.9344209266272472 13.8791036698899095
 16.3332275663206943 10.0261731337656741 10.8456397086948026
 16.3332275663206943 10.0261731337656741 13.8791036698899095
  8.3915158122640197 10.0261731337656741 13.8791036698899095
 10.8456397086948026 16.4511529072247988 14.8164955857231444
  8.3915158122640197 10.0261731337656741 10.8456397086948026
 10.8456397086948026  8.5094411531681224 14.8164955857231444
 13.8791036698899095  8.5094411531681224 14.8164955857231444
 10.8456397086948026 16.4511529072247988  9.9082477928615713
 13.8791036698899095 16.4511529072247988  9.9082477928615713
 10.8456397086948026  8.5094411531681224  9.9082477928615713
 13.8791036698899095  8.5094411531681224  9.9082477928615713
 13.8791036698899095 16.4511529072247988 14.8164955857231444
  7.3477136723428256 16.9473059028218955 13.0004087839047013
 19.2602813034278029 16.9473059028218955 17.5506047256973972
  5.9416257985929715 13.2661200581757193 15.2755067548010590
 16.9851833325315980 15.5412180290719810 21.2317905703435272
 16.9851833325315980 10.9910220872793225 21.2317905703435272
 19.2602813034278739  9.5849342135294435 17.5506047256973972
 16.9851833325315411 15.5412180290720165  9.3192229392585286
 17.8541934296780695  5.9037483688833063 15.2755067548010377
 19.2602813034278668  9.5849342135294613 13.0004087839047120
 19.2602813034278100 16.9473059028218564 13.0004087839047155
 20.6663691771777209 13.2661200581756908 15.2755067548010270
 13.3039974878854270 17.8163159999682819  7.9131350655086816
 13.3039974878853986 17.8163159999684382 22.6378784440933671
 13.3039974878853915  8.7159241163830359 22.6378784440933813
  7.3477136723428575  9.5849342135294791 13.0004087839047155
 16.9851833325315411 10.9910220872793580  9.3192229392585286
  9.6228116432391868 10.9910220872793296  9.3192229392585357
 13.3039974878853311 13.2661200581757193  7.9131350655086994
  7.3477136723427972 16.9473059028218564 17.5506047256973758
  8.7538015460927081  5.9037483688832992 15.2755067548010448
 13.3039974878853915 13.2661200581756944 22.6378784440933813
 15.5790954587817208  7.3098362426331818 11.5943209101548756
 15.5790954587817279  7.3098362426331462 18.9566925994472228
 11.0288995169889983  7.3098362426332066 11.5943209101548614
 11.0288995169890232  7.3098362426331782 18.9566925994472300
 13.3039974878853666  5.9037483688832992 15.2755067548010448
 15.5790954587817279 19.2224038737180791 11.5943209101548685
 15.5790954587817776 19.2224038737181715 18.9566925994472086
 11.0288995169890551 19.2224038737181644 11.5943209101548543
 11.0288995169891049 19.2224038737181786 18.9566925994472442
 13.3039974878853737 20.6284917474679403 15.2755067548010626
  9.6228116432392117 15.5412180290720237 21.2317905703435272
  9.6228116432392117 10.9910220872793651 21.2317905703435272
  7.3477136723428469  9.5849342135295217 17.5506047256973758
  9.6228116432391513 15.5412180290720485  9.3192229392585499
 17.8541934296779985 20.6284917474679688 15.2755067548010732
 13.3039974878853666  8.7159241163830004  7.9131350655086852
  8.7538015460927259 20.6284917474680114 15.2755067548010413
  5.9416257985929892 13.2661200581757619 19.8257026965936873
 20.6663691771777209 13.2661200581756304 10.7253108130084112
  5.9416257985930070 13.2661200581756589 10.7253108130083863
 20.6663691771777067 13.2661200581756660 19.8257026965937158
 12.6610969013645569 19.7247433785846411 15.2742700173335155
  7.8109123338497337 10.8726472231571805 15.9930762079784099
 11.4920981784958283 20.5101168833458800 17.3991640817282445
  6.7048130858220301  8.6811858446462189 17.5493679882298679
  6.7642496074170584 10.4522884868926340 17.9210490082339859
  8.2219291179692906  9.4157624916675466 18.2117000930761392
 11.0513833076425225 10.9102517860470023 19.7318557228051077
 10.0860103047460878 12.2787350969070204 19.6742620526245489
 21.5405846228041540 13.0969483363137726 20.4867980639725005
 12.4574711813923553 19.1416335724859294 17.4567577519087394
  8.9799110567183771 10.0872737183960801 21.2305538328759908
 12.7205334229595852 21.4958460208310385 15.6459510373376975
  9.0393475783134587 11.8583763606424881 21.6022348528801373
 11.0513833076425225 15.4604477278396608 19.7318557228051077
  8.7762853367461435  9.5041639122971482 16.0506698781589421
 14.1782129335118103 20.4593200256059404 15.9366021221798260
 20.0829051122518152 14.1334743315387072 20.1961469791303116
  8.9799110567183771 14.6374696601887386 21.2305538328759908
  9.0393475783134587 16.4085723024351466 21.6022348528801373
 10.4970270888656447 15.3720463072100131 21.8928859377222835
 14.7325691522886668 20.5477214462355988 13.7755719072626324
 13.7671961493922961 21.9162047570956560 13.7179782370821446
 20.0234685906569894 12.3623716892923028 19.8244659591262078
 10.4970270888656447 10.8218503654173546 21.8928859377222835
 10.0860103047460878 16.8289310386996789 19.6742620526245489
 18.3173920911848640 21.9162047570956986 13.7179782370821517
  6.7642496074169873 17.8146601761849581 17.9210490082339504
  5.3581617336672220 14.1334743315387605 11.0957550955449999
  6.7048130858220052 16.0435575339386034 12.9991720464371898
  6.7642496074170548 17.8146601761850221 13.3708530664412866
  8.2219291179692373 16.7781341809598992 13.6615041512834967
  8.7762853367461613  9.5041639122971624 11.5004739363662818
  7.8109123338497124 10.8726472231571698 11.4428802661857691
  5.2987252120721973 12.3623716892923596 10.7240740755408641
 19.2827650940812987 20.5477214462356841 13.7755719072626182
  6.7642496074170726 10.4522884868925807 13.3708530664413292
  8.2219291179692906  9.4157624916675005 13.6615041512834861
 11.0513833076424905 10.9102517860470130  7.8192880917201020
 10.0860103047460417 12.2787350969070204  7.7616944215395893
  8.9799110567183771 10.0872737183960304  9.3179862017910136
  9.0393475783134019 11.8583763606424313  9.6896672217951494
 10.4970270888656199 10.8218503654173510  9.9803183066373062
 11.0513833076424657 15.4604477278396359  7.8192880917201339
 10.0860103047460630 16.8289310386996753  7.7616944215395680
  6.4048244600998618 14.5538330678033496  9.1677822952894399
  8.9799110567183238 14.6374696601887564  9.3179862017910455
  9.0393475783133734 16.4085723024351786  9.6896672217951245
 10.4970270888655879 15.3720463072100806  9.9803183066373276
  8.7762853367461471 16.8665356015894652 16.0506698781589634
  7.8109123338497621 18.2350189124495188 15.9930762079784312
  7.3701974629963107 13.1853497569433422  9.2253759654699525
  6.7048130858219874 16.0435575339385537 17.5493679882298537
  8.2219291179692124 16.7781341809598921 18.2117000930761748
 10.3859989304683804 18.3186555048348154 18.9554558619797646
 11.9031149626155770 19.0532321518562924 19.6177879668259934
  7.8109123338497408 18.2350189124495614 11.4428802661857407
 11.4920981784959348  8.5975492522608370 10.0367923924358902
 20.0234685906568686 12.3623716892923596 10.7240740755408712
 10.3859989304681992  6.4060878737498967 11.5930841726873606
 10.4454354520631849  8.1771905159963225 11.9647651926914147
 11.9031149626154242  7.1406645207712671 12.2554162775336604
 17.0076671231850227  7.2290659414008047 17.4567577519087678
 16.0422941202885738  8.5975492522608192 17.3991640817282800
 14.9361948722609252  6.4060878737498363 18.9554558619797078
 14.9956313938559216  8.1771905159962550 19.3271368819838045
 16.4533109044081698  7.1406645207712103 19.6177879668260005
 17.0076671231850014  7.2290659414008047 10.0943860626164135
 16.0422941202885880  8.5975492522608299 10.0367923924358866
 21.1295678386846220 14.5538330678033176  9.1677822952894648
 14.9361948722609608  6.4060878737498470 11.5930841726873997
 14.9956313938558861  8.1771905159962692 11.9647651926914502
 16.4533109044081769  7.1406645207712955 12.2554162775336426
 14.7325691522887023 13.1853497569433316 21.1379435965549618
 13.7671961493922677 14.5538330678033496 21.0803499263744030
 22.0949408415810353 13.1853497569432712  9.2253759654699952
 12.6610969013645569 12.3623716892924094 22.6366417066258450
 12.7205334229596385 14.1334743315388174 23.0083227266299915
 14.1782129335118245 13.0969483363136838 23.2989738114721376
 14.7325691522886455 13.1853497569433067  6.4132002179702834
 13.7671961493922428 14.5538330678033461  6.3556065477897175
 12.6610969013645036 12.3623716892924271  7.9118983280411950
 12.4574711813923305  7.2290659414007976 10.0943860626164490
 11.9031149626154384  7.1406645207712458 19.6177879668260289
 10.4454354520632169  8.1771905159962941 19.3271368819837903
 10.3859989304682205  6.4060878737498719 18.9554558619797291
 12.4574711813923624 19.1416335724858158 10.0943860626164028
 11.4920981784959206 20.5101168833458232 10.0367923924358866
 21.1295678386845438 14.5538330678033638 18.2681741788747587
 10.3859989304682738 18.3186555048348509 11.5930841726873606
 10.4454354520632204 20.0897581470812625 11.9647651926914254
 11.9031149626154917 19.0532321518562284 12.2554162775336426
 17.0076671231850227 19.1416335724859081 17.4567577519087109
 16.0422941202885525 20.5101168833458871 17.3991640817282587
 22.0949408415810069 13.1853497569433742 18.3257678490552891
 14.9361948722610958 18.3186555048347799 18.9554558619797291
 14.9956313938558718 20.0897581470812128 19.3271368819838116
 16.4533109044082551 19.0532321518563421 19.6177879668259720
 10.4454354520632595 20.0897581470812412 19.3271368819838685
 17.0076671231850156 19.1416335724858300 10.0943860626163886
 14.9361948722609359 18.3186555048347586 11.5930841726873393
 14.9956313938559145 20.0897581470811559 11.9647651926915106
 16.4533109044081769 19.0532321518561076 12.2554162775336213
 14.7325691522886704  5.8229780676509826 13.7755719072626110
 13.7671961493922215  7.1914613785109900 13.7179782370820984
 21.5405846228041398 13.0969483363135986 11.3864061803871817
 12.6610969013645569  5.0000000000000000 15.2742700173335226
 12.7205334229595817  6.7711026422464009 15.6459510373376585
 14.1782129335117997  5.7345766470213206 15.9366021221798153
 12.4574711813923447  7.2290659414007763 17.4567577519087962
 11.4920981784959704  8.5975492522608192 17.3991640817282729
 20.0829051122519857 14.1334743315387641 11.0957550955450390
 16.0422941202885596 20.5101168833458303 10.0367923924359506
  8.7762853367461471 16.8665356015895291 11.5004739363662853
  6.7048130858220478  8.6811858446461798 12.9991720464371934
  6.8158412442194081 13.0969483363137513 15.9366021221798366
 12.6610969013645569  7.8121757474997011  7.9118983280411630
 12.7205334229595817  9.5832783897461020  8.2835793480452988
 14.1782129335117997  8.5467523945210218  8.5742304328874557
 14.7325691522886846 17.7355456987360469  6.4132002179701981
 13.7671961493921966 19.1040290095960259  6.3556065477897530
  9.2170002075996553 21.9162047570956702 13.7179782370820877
 12.6610969013647203 16.9125676310849080  7.9118983280411630
 12.7205334229595497 18.6836702733313231  8.2835793480453237
 14.1782129335118956 17.6471442781064027  8.5742304328874273
 22.0949408415810495 13.1853497569433920 13.7755719072625862
 21.1295678386845580 14.5538330678033780 13.7179782370820806
 12.7205334229595532 14.1334743315388494  8.2835793480452740
 10.1823732104960261 20.5477214462356130 13.7755719072626146
 20.0829051122519004 14.1334743315387712 15.6459510373376371
 21.5405846228041540 13.0969483363137407 15.9366021221798011
 20.6888529678311599 16.8665356015896215 11.5004739363663067
 19.7234799649346471 18.2350189124495756 11.4428802661857940
 18.6173807169070145 16.0435575339385430 12.9991720464371650
 18.6768172385019753 17.8146601761849226 13.3708530664413292
 20.1344967490542288 16.7781341809598885 13.6615041512835074
 20.6888529678311812  9.5041639122970878 11.5004739363662853
 19.7234799649347821 10.8726472231571414 11.4428802661857763
  6.8158412442194223 13.0969483363137655 20.4867980639724578
 18.6173807169070002  8.6811858446462082 12.9991720464371827
 20.0234685906569325 12.3623716892923738 15.2742700173335084
 13.7671961493922215 10.0036371260106911  6.3556065477897388
 14.7325691522886704  8.6351538151506837  6.4132002179702514
 14.1782129335118707 17.6471442781064667 23.2989738114720950
 17.2112928431572811 19.7247433785845985 15.2742700173335546
 17.2707293647521141 21.4958460208310171 15.6459510373376727
 18.7284088753044600 20.4593200256061039 15.9366021221798437
 10.1823732104960119  5.8229780676509826 13.7755719072626110
  9.2170002075995630  7.1914613785109900 13.7179782370820984
  9.6280169917191589 20.4593200256060541 15.9366021221798224
  8.1109009595718984  5.0000000000000000 15.2742700173335226
  8.1703374811669232  6.7711026422464009 15.6459510373376585
  9.6280169917191412  5.7345766470213206 15.9366021221798153
 19.2827650940813555  5.8229780676510146 13.7755719072625578
 18.3173920911848640  7.1914613785109971 13.7179782370820806
  8.1703374811669232 21.4958460208311095 15.6459510373376265
 17.2112928431572598  5.0000000000000000 15.2742700173335262
 17.2707293647522775  6.7711026422464080 15.6459510373376514
 18.7284088753045239  5.7345766470213384 15.9366021221797904
 14.7325691522887023  8.6351538151506730 21.1379435965549618
 13.7671961493922677 10.0036371260106911 21.0803499263744030
  8.1109009595719197 19.7247433785847051 15.2742700173335226
 12.6610969013645569  7.8121757474997509 22.6366417066258450
 12.7205334229596385  9.5832783897461589 23.0083227266299915
 14.1782129335118245  8.5467523945210253 23.2989738114721376
 14.7325691522886846 17.7355456987360469 21.1379435965548979
 13.7671961493922357 19.1040290095960543 21.0803499263743390
 12.6610969013645676 16.9125676310851460 22.6366417066258805
 12.7205334229596314 18.6836702733315718 23.0083227266299772
 18.6768172385021174 10.4522884868925843 13.3708530664413292
 20.1344967490542928  9.4157624916674223 13.6615041512834825
 14.1782129335117677 13.0969483363137513  8.5742304328874770
 18.4137549969348413 10.9102517860470840  7.8192880917200807
 18.6768172385019753 17.8146601761849865 17.9210490082339717
 20.1344967490542217 16.7781341809599702 18.2117000930762032
 20.6888529678311812  9.5041639122971020 16.0506698781589705
 19.7234799649347678 10.8726472231571378 15.9930762079784810
  6.4048244600998618 14.5538330678033887 18.2681741788746876
 18.6768172385021458 10.4522884868925807 17.9210490082340073
 20.1344967490542786  9.4157624916673939 18.2117000930761748
 18.4137549969348768 10.9102517860469845 19.7318557228050793
 17.4483819940384635 12.2787350969070133 19.6742620526245773
  7.3701974629963072 13.1853497569433848 18.3257678490552678
 16.3422827460108593 10.0872737183959700 21.2305538328759980
 16.4017192676057491 11.8583763606423993 21.6022348528801231
 17.8593987781580523 10.8218503654174008 21.8928859377222977
 18.4137549969348768 15.4604477278396431 19.7318557228050793
 17.4483819940384635 16.8289310386996718 19.6742620526245773
 16.3422827460108593 14.6374696601886285 21.2305538328759980
 16.4017192676057491 16.4085723024350578 21.6022348528801231
 17.8593987781580523 15.3720463072100593 21.8928859377222977
  7.3701974629962859 13.1853497569433067 13.7755719072626430
  6.4048244600998832 14.5538330678033461 13.7179782370820771
  6.8158412442194400 13.0969483363136803 11.3864061803871568
  5.2987252120721440 12.3623716892924271 15.2742700173335546
  5.3581617336671936 14.1334743315388494 15.6459510373376336
 18.6173807169070074 16.0435575339385856 17.5493679882298892
 19.7234799649347181 18.2350189124495472 15.9930762079784419
 18.6173807169069931  8.6811858446461940 17.5493679882298466
 17.4483819940383569 16.8289310386997180  7.7616944215395822
  5.2987252120721475 12.3623716892924804 19.8244659591261794
 16.3422827460106888 10.0872737183960872  9.3179862017909922
 17.8593987781579884 10.8218503654173155  9.9803183066372636
 16.4017192676058059 16.4085723024351289  9.6896672217951956
 17.8593987781579884 15.3720463072099740  9.9803183066372636
 16.4017192676058059 11.8583763606424704  9.6896672217951956
 16.3422827460106888 14.6374696601887457  9.3179862017909922
 17.4483819940383569 12.2787350969070594  7.7616944215395822
 18.4137549969348413 15.4604477278397425  7.8192880917200807
 20.6888529678311315 16.8665356015895185 16.0506698781589989
  5.3581617336672327 14.1334743315388884 20.1961469791303045
 10.0958107084799753 11.2668435977816515  7.9323628297997058
  6.4146248638337884 13.5419415686780269 18.4388425871348502
 16.0520945240224933  7.5856577531354645 10.2074608006960244
 17.4581823977723190 15.8170395395743526  7.9323628297996951
 18.3271924949188332  6.1795698793856282 13.8886466453421935
  6.4146248638337955 13.5419415686779807  9.3384507035495563
  6.4146248638337813 13.5419415686779807 13.8886466453422219
 13.7769965531261906 13.5419415686779843 21.2510183346345443
 10.0958107084800108 15.8170395395743135 19.8449304608846901
  7.8207127375836460  9.8607557240318009 11.6135486744458856
 11.5018985822298223 19.4982253842205182 17.5698324899883787
  9.2268006113334966  6.1795698793856211 13.8886466453422148
 13.7769965531261409 13.5419415686779807  6.5262749560498623
 13.7769965531261729 20.9043132579702799 13.8886466453422397
 21.1393682424185272 13.5419415686779416  9.3384507035495812
 18.3271924949187905 20.9043132579703226 13.8886466453422432
 19.7332803686686802  9.8607557240317689 11.6135486744458891
 17.4581823977723758 15.8170395395742993 19.8449304608846901
 16.0520945240225075  7.5856577531354468 17.5698324899883858
  7.8207127375836389 17.2231274133241925 11.6135486744458714
 21.1393682424184846 13.5419415686779985 18.4388425871348858
 21.1393682424185201 13.5419415686780091 13.8886466453421971
  7.8207127375836389  9.8607557240318116 16.1637446162385388
 13.7769965531261551  6.1795698793856211 13.8886466453422148
 13.7769965531261587 18.0921375104706499  6.5262749560498410
 19.7332803686686233 17.2231274133241783 16.1637446162385601
 19.7332803686686731  9.8607557240317583 16.1637446162385672
 10.0958107084800108 11.2668435977816550 19.8449304608846901
 11.5018985822298436  7.5856577531354503 17.5698324899883929
 13.7769965531261906  8.9917456268853257 21.2510183346345443
 17.4581823977723190 11.2668435977816941  7.9323628297996951
  7.8207127375836425 17.2231274133241428 16.1637446162385530
 16.0520945240225004 19.4982253842205111 17.5698324899883573
 17.4581823977723758 11.2668435977816408 19.8449304608846901
 11.5018985822298259  7.5856577531354716 10.2074608006960315
 13.7769965531261729 18.0921375104706925 21.2510183346345087
 19.7332803686686162 17.2231274133242067 11.6135486744458962
 10.0958107084799611 15.8170395395743100  7.9323628297997129
 16.0520945240225004 19.4982253842204543 10.2074608006960350
  9.2268006113335286 20.9043132579703013 13.8886466453422113
 13.7769965531261551  8.9917456268853222  6.5262749560498552
 11.5018985822298507 19.4982253842204614 10.2074608006960172
